NAME : portcgen-22-15
COMMENT : portcgen N=22, seed=15
TYPE : TSP
DIMENSION : 22
EDGE_WEIGHT_TYPE : EUC_2D
NODE_COORD_SECTION
1 110528 101132
2 -362389 -247216
3 168642 65142
4 185556 315929
5 48834 -333290
6 351501 -326400
7 258880 -8461
8 -239077 165089
9 359507 99697
10 -49230 -266799
11 95074 146466
12 -183319 174822
13 346655 -260717
14 -179597 -248337
15 314902 18196
16 -42484 -304094
17 -98367 130263
18 334289 223848
19 -415282 -7607
20 266234 -133011
21 -125672 23463
22 121081 142965
